30	100	100	100
2	76	92
34	88	76
8	80	85
46	77	94
21	81	97
15	81	73
8	76	94
44	99	97
25	71	84
4	98	78
11	88	90
38	96	78
39	89	94
20	68	89
36	73	80
34	66	89
6	75	69
48	68	71
2	71	81
33	93	81
1	99	94
9	73	84
22	88	71
37	95	89
39	92	71
32	72	92
9	72	90
5	74	74
9	93	67
1	93	73
